     1
     2
    67    101      2
blk-1
6
       1       67        1      101        1        1        3
       1       67        1      101        2        2        3
       1        1        1      101        1        2        2
      67       67        1      101        1        2        2
       1       67        1        1        1        2        19
       1       67      101      101        1        2        5
   101    201      2
blk-2
8
       1      101        1      201        1        1        3
       1      101        1      201        2        2        3
       1        1        1      201        1        2        2
     101      101        1       68        1        2        2
     101      101       68      134        1        2        19
     101      101      134      201        1        2        2
       1      101        1        1        1        2        5
       1      101      201      201        1        2        6
