OpenCFD-EC bc3d.inp generated from bc3d_interface.inp
           2
        81        21         2
blk-1
           6
         1         1         1        21         1         2         5
        81        81         1        21         1         2         6
         1        81         1         1         1         2        16
         1        81        21        21         1         2         2
         1        81         1        21         1         1         3
         1        81         1        21         2         2         3
        81        25         2
blk-2
           6
         1         1         1        25         1         2         5
        81        81         1        25         1         2         6
         1        81         1         1         1         2         2
         1        81        25        25         1         2        16
         1        81         1        25         1         1         3
         1        81         1        25         2         2         3
