! OpenCFD-EC boundary file: Beavers-Joseph two blocks
2
81 81 2
blk-1
6
   1    1    1   81    1    2    5
  81   81    1   81    1    2    6
   1   81    1    1    1    2   16
   1   81   97   97    1    2    2
   1   81   81   81    1    2    2
   1   81    1   81    1    1    3
   1   81    1   81    2    2    3
81 97 2
blk-2
6
   1    1    1   97    1    2    5
  81   81    1   97    1    2    6
   1   81    1    1    1    2    2
   1   81   97   97    1    2   16
   1   81    1    1    1    2    1
   1   81    1   97    1    1    3
   1   81    1   97    2    2    3
