! 2-block channel, conformal -1 interface at x=Lx/2
2
81 41 2
blk-1
6
   1    1    1   41    1    2    5
  81   81    1   41   -1   -2   -1
   1    1    1   41   -1   -2    2
   1   81    1    1    1    2    2
   1   81   41   41    1    2    2
   1   81    1   41    1    1    3
   1   81    1   41    2    2    3
81 41 2
blk-2
6
   1    1    1   41   -1   -2   -1
  81   81    1   41   -1   -2    1
  81   81    1   41    1    2    6
   1   81    1    1    1    2    2
   1   81   41   41    1    2    2
   1   81    1   41    1    1    3
   1   81    1   41    2    2    3
