! OpenCFD-EC boundary file: Beavers-Joseph two blocks
2
161 81 2
blk-1
6
   1    1    1   81    1    2    5
 161  161    1   81    1    2    6
   1  161    1    1    1    2   16
   1  161   97   97    1    2    2
   1  161   81   81    1    2    2
   1  161    1   81    1    1    3
   1  161    1   81    2    2    3
161 97 2
blk-2
6
   1    1    1   97    1    2    5
 161  161    1   97    1    2    6
   1  161    1    1    1    2    2
   1  161   97   97    1    2   16
   1  161    1    1    1    2    1
   1  161    1   97    1    1    3
   1  161    1   97    2    2    3
