! OpenCFD-EC boundary: transpiration wall under Ma=3 800K channel (interface 19)
2
121 81 2
blk-1
6
   1    1    1   81    1    2    5
 121  121    1   81    1    2    6
   1  121    1    1    1    2   19
   1  121   17   17    1    2    2
   1  121   81   81    1    2    3
   1  121    1   81    1    1    3
   1  121    1   81    2    2    3
121 17 2
blk-2
6
   1    1    1   17    1    2    2
 121  121    1   17    1    2    2
   1  121    1    1    1    2    5
   1  121   17   17    1    2   19
   1  121    1    1    1    2    1
   1  121    1   17    1    1    3
   1  121    1   17    2    2    3
