
     2
     151      85       2
blk-1
7
       1       1       1      85       1       2       5
     151     151       1      85       1       2       6
       1     101       1       1       1       2      -1
       1     101      11      11       1       2       2
     102     151       1       1       1       2       3
       1     151      85      85       1       2       3
       1     151       1      85       1       1       3
       1     151       1      85       2       2       3
     101      11       2
blk-2
6
       1       1       1      11       1       2       2
     101     101       1      11       1       2       2
       1     101       1       1       1       2       2
       1     101      11      11       1       2      -1
       1     101       1       1       1       2       1
       1     101       1      11       1       1       2
       1     101       1      11       2       2       2
