OpenCFD-EC bc3d.inp generated from bc3d_interface.inp
           4
        61        61         2
blk-1
           6
         1        61         1        61         1         1         3
         1        61         1        61         2         2         3
         1        61        61        61         1         2         0
         1         1         1        61        -1        -2        -1
       101       101         1        61        -1        -2         4
         1        61         1         1        -1        -2        -1
        61         1         1         1        -1        -2         3
        61        61         1        61        -1        -2        -1
         1        61       101       101        -1        -2         2
        61       101         2
blk-2
           6
         1        61         1       101         1         1         3
         1        61         1       101         2         2         3
         1         1         1       101         1         2         2
        61        61         1       101         1         2         2
         1        61         1         1         1         2         5
         1        61       101       101        -1        -2        -1
        61        61         1        61        -1        -2         1
        61       101         2
blk-3
           6
         1        61         1       101         1         1         3
         1        61         1       101         2         2         3
         1         1         1       101         1         2         2
        61        61         1       101         1         2         2
         1        61       101       101         1         2         6
         1        61         1         1        -1        -2        -1
        61         1         1         1        -1        -2         1
       101        61         2
blk-4
           6
         1       101         1        61         1         1         3
         1       101         1        61         2         2         3
         1         1         1        61         1         2         6
         1       101         1         1         1         2         2
         1       101        61        61         1         2         2
       101       101         1        61        -1        -2        -1
         1         1         1        61        -1        -2         1
