1
4
    20    41      2
blk-2-split-2
6
       1      20       1      41       1       1       3
       1      20       1      41       2       2       3
       1       1       1      41       1       2       2
      20      20       1      41       1       2       2
       1      20       1       1       1       2      21
       1      20      41      41       1       2      12
       1      20        1        1       -1       -2        3
    22   101      2
blk-1-split-1
6
       1      22       1     101       1       1       3
       1      22       1     101       2       2       3
      22      22       1     101       1       2       6
       1      22       1       1       1       2       2
       1      22     101     101       1       2       4
       1       1       1     101      -1      -2      15
      20      20        1      101       -1       -2        3
    20   101      2
blk-1-split-2
6
       1      20       1     101       1       1       3
       1      20       1     101       2       2       3
       1      20       1       1       1       2      12
       1      20       41       41       -1       -2        1
       1      20     101     101       1       2       4
      20      20       1     101      -1      -2      15
       1       1        1      101       -1       -2        2
       1       1       1     101      -1      -2      15
      41      41        1      101       -1       -2        4
    41   101      2
blk-1-split-3
6
       1      41       1     101       1       1       3
       1      41       1     101       2       2       3
       1       1       1     101       1       2       5
       1      41       1       1       1       2       2
       1      41     101     101       1       2       4
      41      41       1     101      -1      -2      15
       1       1        1      101       -1       -2        3