1
2
   101     81      2
blk-1
7
       1     101       1      81       1       1       3
       1     101       1      81       2       2       3
       1       1      41      81       1       2       2
       1       1       1      41       1       2       2
     101     101       1      81       1       2       4
       1     101       1       1       1       2       6
       1     101      81      81       1       2       5
    41     41      2
blk-2
6
       1      41       1      41       1       1       3
       1      41       1      41       2       2       3
       1       1       1      41       1       2       2
      41      41       1      41       1       2       2
       1      41       1       1       1       2       2
       1      41      41      41       1       2       2