! 4-block channel 2x2, conformal -1 interfaces (corner test)
4
41 21 2
blk-1
6
   1    1    1   21    1    2    5
  41   41    1   21   -1   -2   -1
   1    1    1   21   -1   -2    2
   1   41    1    1    1    2    2
   1   41   21   21   -1   -2   -1
   1   41    1    1   -1   -2    3
   1   41    1   21    1    1    3
   1   41    1   21    2    2    3
41 21 2
blk-2
6
   1    1    1   21   -1   -2   -1
  41   41    1   21   -1   -2    1
  41   41    1   21    1    2    6
   1   41    1    1    1    2    2
   1   41   21   21   -1   -2   -1
   1   41    1    1   -1   -2    4
   1   41    1   21    1    1    3
   1   41    1   21    2    2    3
41 21 2
blk-3
6
   1    1    1   21    1    2    5
  41   41    1   21   -1   -2   -1
   1    1    1   21   -1   -2    4
   1   41    1    1   -1   -2   -1
   1   41   21   21   -1   -2    1
   1   41   21   21    1    2    2
   1   41    1   21    1    1    3
   1   41    1   21    2    2    3
41 21 2
blk-4
6
   1    1    1   21   -1   -2   -1
  41   41    1   21   -1   -2    3
  41   41    1   21    1    2    6
   1   41    1    1   -1   -2   -1
   1   41   21   21   -1   -2    2
   1   41   21   21    1    2    2
   1   41    1   21    1    1    3
   1   41    1   21    2    2    3
