! cylinder two-block polar O-grid
     2
   121    61     2
blk-1
7
       1     121       1      61       1       1       3
       1     121       1      61       2       2       3
       1       1       1      61       1       2       2
     121     121       1      31       1       2      22
     121     121      31      61       1       2      21
       1     121       1       1       1       2      -1
       1     121      61      61       1       2       2
       1     121      61      61       1       2      -1
       1     121       1       1       1       2       2
   121    61     2
blk-2
7
       1     121       1      61       1       1       3
       1     121       1      61       2       2       3
       1       1       1      61       1       2       2
     121     121       1      31       1       2      21
     121     121      31      61       1       2      22
       1     121       1       1       1       2      -1
       1     121      61      61       1       2       1
       1     121      61      61       1       2      -1
       1     121       1       1       1       2       1
