     1
     3
    41     41     41
blk-1
6
       1       41        1       41        1        1        2
       1       41        1       41       41       41        2
       1        1        1       41        1       41        5
       1       41        1        1        1       41        2
       1       41       41       41        1       41        2
      41       41        1       41       -1      -41       -1
       1        1        1       41       -1      -41        3
    41     41     41
blk-2
6
       1       41        1       41        1        1        2
       1       41        1       41       41       41        2
      41       41        1       41        1       41        6
       1       41        1        1        1       41        2
       1       41       41       41        1       41        2
       1        1        1       41       -1      -41       -1
      11       11        1       41       -1      -41        3
    11     41     41
blk-3
6
       1       11        1       41        1        1        2
       1       11        1       41       41       41        2
       1       11        1        1        1       41        2
       1       11       41       41        1       41        2
       1        1        1       41       -1      -41       -1
      41       41        1       41       -1      -41        1
      11       11        1       41       -1      -41       -1
       1        1        1       41       -1      -41        2
