! half-cylinder polar grid, upper half with symmetry plane y=0
     1
   161   121     2
blk-1
     7
       1       1       1     121       1       2       2
     161     161       1      61       1       2       6
     161     161      61     121       1       2       5
       1     161       1       1       1       2       3
       1     161     121     121       1       2       3
       1     161       1     121       1       1       3
       1     161       1     121       2       2       3
